1
1000
179
103 2
104 1
105 3
107 3
108 4
109 3
110 2
112 4
113 2
114 1
115 3
116 4
117 3
118 1
119 3
120 6
121 1
122 3
123 3
124 2
125 6
126 2
127 3
128 4
129 2
130 4
132 2
133 5
134 2
135 1
136 2
137 4
138 2
139 2
140 3
141 3
142 6
143 2
144 3
145 3
148 2
149 2
150 3
151 2
152 7
153 1
154 1
155 1
156 7
157 4
159 3
162 2
163 1
164 3
165 1
166 4
167 2
168 2
169 5
170 1
172 5
173 5
174 1
175 3
176 1
178 3
179 5
180 2
181 3
182 6
183 1
184 1
185 2
187 3
188 6
189 2
190 1
192 2
193 4
194 2
195 1
196 3
197 4
198 1
199 4
200 2
201 3
203 2
204 1
205 3
206 1
207 2
208 1
209 1
210 3
211 5
212 1
213 2
214 1
215 3
216 3
217 1
218 2
219 5
220 4
221 3
222 3
223 2
224 3
225 2
226 2
227 2
228 3
229 3
230 1
231 3
233 3
234 4
235 5
236 7
237 1
238 4
239 3
240 1
241 4
242 1
244 3
245 1
246 3
247 3
248 2
249 2
250 5
251 4
252 2
253 3
254 1
255 2
256 2
257 1
258 2
259 4
260 2
261 4
262 2
263 1
264 3
265 2
266 5
267 1
268 6
269 4
270 5
271 5
272 2
273 2
274 4
275 3
276 1
277 3
278 2
279 3
280 2
281 2
282 4
283 5
284 2
285 3
286 3
287 5
288 3
290 3
292 5
293 3
294 4
295 3
298 3
299 2
300 2
